GLPSOL: GLPK LP/MIP Solver, v4.55
Parameter(s) specified in the command line:
 -m tmp.mod
Reading model section from tmp.mod...
Reading data section from tmp.mod...
2209 lines were read
Generating obj...
Generating kirhoff...
Generating init_charge...
Generating batt_size...
Model has been successfully generated
GLPK Simplex Optimizer, v4.55
2579 rows, 3060 columns, 6260 non-zeros
Preprocessing...
1586 rows, 3004 columns, 6138 non-zeros
Scaling...
 A: min|aij| =  1.000e+00  max|aij| =  1.000e+00  ratio =  1.000e+00
Problem data seem to be well scaled
Constructing initial basis...
Size of triangular part is 1222
      0: obj =   0.000000000e+00  infeas =  1.238e+03 (364)
*   379: obj =   1.000000000e+02  infeas =  0.000e+00 (250)
*   500: obj =   3.700000000e+01  infeas =  0.000e+00 (249)
*   523: obj =   3.200000000e+01  infeas =  0.000e+00 (248)
OPTIMAL LP SOLUTION FOUND
Time used:   0.1 secs
Memory used: 6.6 Mb (6886414 bytes)
#OUTPUT:
32
-42 0 -31 8 -41 0 -41 0 -1 0 0 0 -2 -29 0 0 0 -5 0 0 1 0 0 0 0 0 0 0 0 0 0 -38 1 0 -5 0 0 0 0 0 0 0 -1 0 0 0 0 0 0 0 0 0 -2 29 0 0 0 0 0 0 -10 0 0 0 0 0 0 10 -1 0 -2 -35 0 0 0 0 0 0 0 0 0 0 0 0 0 0 0 0 0 0 0 0 0 0 0 0 0 0 0 0 0 0 0 0 0 0 0 0 0 1 0 -41 0 0 0 0 0 -2 -30 0 0 0 0 0 0 0 0 0 0 0 0 0 0 0 0 1 0 0 -1 0 0 0 0 0 0 0 0 0 0 0 0 0 0 0 0 0 0 0 0 0 0 0 0 0 0 0 0 0 0 0 0 0 0 0 6 0 0 0 0 0 -1 -3 0 0 0 0 0 0 0 0 0 0 0 0 0 0 0 0 -2 0 0 2 6 -10 -29 35 0 0 0 0 0 0 0 0 0 30 0 0 0 -1 0 1 0 0 0 0 0 0 0 0 0 0 0 0 0 0 0 0 0 0 -6 0 0 1 3 0 0 0 0 0 0 0 0 0 0 0 0 0 0 0 0 0 0 0 0 0 0 0 0 0 0 0 0 0 0 0 0 0 0 0 0 0 0 0 0 0 0 0 0 0 0 0 0 0 0 0 0 0 0 0 0 0 0 0 0 0 0 0 0 0 0 0 0 0 0 0 0 0 0 0 0 0 0 0 0 0 0 0 0 0 0 0 0 0 0 0 0 0 0 0 0 0 0 0 0 0 0 0 0 0 0 0 0 0 0 0 0 0 0 0 
-42 0 -44 -8 -26 0 -10 -7 -5 -8 0 0 -10 -26 0 0 0 -5 3 -4 -43 1 2 0 0 0 0 0 0 -6 0 0 -43 -4 -8 0 0 0 0 0 0 0 42 1 1 0 -1 0 0 2 0 0 -2 19 0 2 -2 0 0 0 10 -5 0 -2 0 -4 0 2 -7 -5 -11 -35 0 0 0 -1 2 7 0 0 1 0 0 0 0 0 0 0 2 0 0 0 1 0 -2 0 0 6 0 2 0 0 0 0 -2 0 3 0 0 -42 2 0 -3 0 2 0 0 -11 -33 0 -1 0 -1 0 2 0 0 0 0 0 0 0 0 0 0 5 0 5 -1 0 0 -2 -1 0 0 0 0 0 0 0 -1 0 0 0 0 -6 0 0 0 0 -1 0 2 0 0 0 0 0 -5 0 0 0 0 0 30 2 0 0 0 0 42 0 0 0 0 0 0 -1 0 0 0 0 0 0 0 0 0 0 -2 -1 -1 -2 16 -2 -26 35 0 -2 -5 -1 0 0 2 3 0 -43 -5 -2 1 -5 1 1 -1 2 -2 3 0 0 0 6 0 0 -2 2 1 0 -2 0 5 0 -30 -2 0 -42 0 1 0 0 0 0 0 0 0 0 0 0 0 0 0 0 0 0 0 0 0 0 0 0 0 0 0 0 0 0 0 0 0 0 0 0 0 0 0 0 0 0 0 0 0 0 0 0 0 0 0 0 0 0 0 0 0 0 0 0 0 0 0 0 0 0 0 0 0 0 0 0 0 0 0 0 0 0 0 0 0 0 0 0 0 0 0 0 0 0 0 0 0 0 0 0 0 0 0 0 0 0 0 0 0 0 0 0 0 0 0 0 0 0 0 0 
-42 0 -44 -8 -8 0 -8 0 -8 -8 0 0 -1 0 0 0 0 -5 0 -3 -34 -1 1 0 0 0 0 3 0 -30 0 0 -34 -33 -5 0 0 0 0 0 0 0 33 0 -1 0 1 0 0 0 0 0 -2 0 0 0 2 0 0 0 7 0 0 3 0 0 3 -7 0 0 0 -35 0 3 0 -1 0 2 0 0 -1 0 0 0 0 0 0 0 0 0 0 0 -1 0 0 0 0 3 0 2 0 0 0 0 3 0 -2 0 0 -33 0 0 -1 0 0 0 0 0 0 0 0 0 0 0 0 0 0 0 0 0 0 0 0 0 0 0 0 0 0 0 0 0 0 0 0 0 0 0 0 0 0 0 0 0 0 -3 -3 -8 0 0 0 0 0 0 0 0 0 0 0 0 0 0 0 0 -45 0 0 0 0 0 33 0 0 0 0 0 0 0 0 0 0 0 0 0 0 0 0 0 -2 0 0 2 35 7 0 35 0 0 0 1 0 3 -3 1 0 0 -3 0 0 -8 -1 1 0 0 2 -2 0 0 0 3 0 3 3 5 0 0 0 0 0 0 -46 0 0 -33 0 0 0 0 0 0 0 0 0 0 0 0 0 0 0 0 0 0 0 0 0 0 0 0 0 0 0 0 0 0 0 0 0 0 0 0 0 0 0 0 0 0 0 0 0 0 0 0 0 0 0 0 0 0 0 0 0 0 0 0 0 0 0 0 0 0 0 0 0 0 0 0 0 0 0 0 0 0 0 0 0 0 0 0 0 0 0 0 0 0 0 0 0 0 0 0 0 0 0 0 0 0 0 0 0 0 0 0 0 0 0 0 0 0 0 0 
-26 0 -43 0 -39 -7 0 0 0 0 -7 0 0 0 0 0 0 0 0 0 -43 0 0 0 0 0 0 -26 -1 0 0 0 -43 0 0 0 0 0 0 0 0 0 -22 0 0 0 0 0 0 0 0 0 2 0 0 2 0 0 0 0 0 -6 0 0 0 0 0 0 0 0 0 -22 0 0 0 6 0 0 0 0 0 0 0 0 0 0 0 0 0 0 0 0 0 0 0 0 0 0 0 0 0 0 0 0 0 0 0 0 0 22 0 0 0 0 0 0 0 0 0 0 0 0 0 0 2 0 0 0 0 0 0 0 0 -6 0 0 0 0 0 0 0 0 0 0 0 0 0 0 0 0 0 0 0 0 0 0 0 0 0 0 0 0 0 0 0 0 0 -8 0 -1 0 0 0 0 22 6 0 0 0 0 -22 0 0 0 0 0 0 0 0 0 0 0 0 0 0 0 0 0 -4 0 0 -2 22 0 0 22 0 0 0 0 0 0 0 0 0 0 0 -2 0 0 0 0 0 0 0 0 0 0 0 0 0 0 0 0 0 0 0 9 0 1 -22 -6 0 22 0 0 0 0 0 0 0 0 0 0 0 0 0 0 0 0 0 0 0 0 0 0 0 0 0 0 0 0 0 0 0 0 0 0 0 0 0 0 0 0 0 0 0 0 0 0 0 0 0 0 0 0 0 0 0 0 0 0 0 0 0 0 0 0 0 0 0 0 0 0 0 0 0 0 0 0 0 0 0 0 0 0 0 0 0 0 0 0 0 0 0 0 0 0 0 0 0 0 0 0 0 0 0 0 0 0 0 0 0 0 0 0 0 0 0 0 
#OUTPUT END
Model has been successfully processed
